\ENCODING=ISO-8859-1
\Problem name: IloCplex

Maximize
 obj1:
Subject To
 c1: 99 x_1 + 99 x_2 + 96 x_3 + 96 x_4 + 92 x_5 + 92 x_6 + 91 x_7 + 88 x_8
     + 87 x_9 + 86 x_10 + 85 x_11 + 76 x_12 + 74 x_13 + 72 x_14 + 69 x_15
     + 67 x_16 + 67 x_17 + 62 x_18 + 61 x_19 + 56 x_20 + 52 x_21 + 51 x_22
     + 49 x_23 + 46 x_24 + 44 x_25 + 42 x_26 + 40 x_27 + 40 x_28 + 33 x_29
     + 33 x_30 + 30 x_31 + 30 x_32 + 29 x_33 + 28 x_34 + 28 x_35 + 27 x_36
     + 25 x_37 + 24 x_38 + 23 x_39 + 22 x_40 + 21 x_41 + 20 x_42 + 17 x_43
     + 14 x_44 + 13 x_45 + 11 x_46 + 10 x_47 + 7 x_48 + 7 x_49 + 3 x_50 <= 100
Bounds
 0 <= x_1 <= 1
 0 <= x_2 <= 1
 0 <= x_3 <= 1
 0 <= x_4 <= 1
 0 <= x_5 <= 1
 0 <= x_6 <= 1
 0 <= x_7 <= 1
 0 <= x_8 <= 1
 0 <= x_9 <= 1
 0 <= x_10 <= 1
 0 <= x_11 <= 1
 0 <= x_12 <= 1
 0 <= x_13 <= 1
 0 <= x_14 <= 1
 0 <= x_15 <= 1
 0 <= x_16 <= 1
 0 <= x_17 <= 1
 0 <= x_18 <= 1
 0 <= x_19 <= 1
 0 <= x_20 <= 1
 0 <= x_21 <= 1
 0 <= x_22 <= 1
 0 <= x_23 <= 1
 0 <= x_24 <= 1
 0 <= x_25 <= 1
 0 <= x_26 <= 1
 0 <= x_27 <= 1
 0 <= x_28 <= 1
 0 <= x_29 <= 1
 0 <= x_30 <= 1
 0 <= x_31 <= 1
 0 <= x_32 <= 1
 0 <= x_33 <= 1
 0 <= x_34 <= 1
 0 <= x_35 <= 1
 0 <= x_36 <= 1
 0 <= x_37 <= 1
 0 <= x_38 <= 1
 0 <= x_39 <= 1
 0 <= x_40 <= 1
 0 <= x_41 <= 1
 0 <= x_42 <= 1
 0 <= x_43 <= 1
 0 <= x_44 <= 1
 0 <= x_45 <= 1
 0 <= x_46 <= 1
 0 <= x_47 <= 1
 0 <= x_48 <= 1
 0 <= x_49 <= 1
 0 <= x_50 <= 1
Binaries
 x_1  x_2  x_3  x_4  x_5  x_6  x_7  x_8  x_9  x_10  x_11  x_12  x_13  x_14 
 x_15  x_16  x_17  x_18  x_19  x_20  x_21  x_22  x_23  x_24  x_25  x_26  x_27 
 x_28  x_29  x_30  x_31  x_32  x_33  x_34  x_35  x_36  x_37  x_38  x_39  x_40 
 x_41  x_42  x_43  x_44  x_45  x_46  x_47  x_48  x_49  x_50 
End
